p cnf 390 1771
-61 -6 -1 0
-61 6 1 0
61 -6 1 0
61 6 -1 0
-62 -7 -2 0
-62 7 2 0
62 -7 2 0
62 7 -2 0
-63 -8 -3 0
-63 8 3 0
63 -8 3 0
63 8 -3 0
-64 -9 -4 0
-64 9 4 0
64 -9 4 0
64 9 -4 0
-65 -10 -5 0
-65 10 5 0
65 -10 5 0
65 10 -5 0
-61 -62 0
-61 -63 0
-61 -64 0
-61 -65 0
-62 -63 0
-62 -64 0
-62 -65 0
-63 -64 0
-63 -65 0
-64 -65 0
61 62 63 64 65 0
-66 -11 -6 0
-66 11 6 0
66 -11 6 0
66 11 -6 0
-67 -12 -7 0
-67 12 7 0
67 -12 7 0
67 12 -7 0
-68 -13 -8 0
-68 13 8 0
68 -13 8 0
68 13 -8 0
-69 -14 -9 0
-69 14 9 0
69 -14 9 0
69 14 -9 0
-70 -15 -10 0
-70 15 10 0
70 -15 10 0
70 15 -10 0
-66 -67 0
-66 -68 0
-66 -69 0
-66 -70 0
-67 -68 0
-67 -69 0
-67 -70 0
-68 -69 0
-68 -70 0
-69 -70 0
66 67 68 69 70 0
-71 -16 -11 0
-71 16 11 0
71 -16 11 0
71 16 -11 0
-72 -17 -12 0
-72 17 12 0
72 -17 12 0
72 17 -12 0
-73 -18 -13 0
-73 18 13 0
73 -18 13 0
73 18 -13 0
-74 -19 -14 0
-74 19 14 0
74 -19 14 0
74 19 -14 0
-75 -20 -15 0
-75 20 15 0
75 -20 15 0
75 20 -15 0
-71 -72 0
-71 -73 0
-71 -74 0
-71 -75 0
-72 -73 0
-72 -74 0
-72 -75 0
-73 -74 0
-73 -75 0
-74 -75 0
71 72 73 74 75 0
-76 -21 -16 0
-76 21 16 0
76 -21 16 0
76 21 -16 0
-77 -22 -17 0
-77 22 17 0
77 -22 17 0
77 22 -17 0
-78 -23 -18 0
-78 23 18 0
78 -23 18 0
78 23 -18 0
-79 -24 -19 0
-79 24 19 0
79 -24 19 0
79 24 -19 0
-80 -25 -20 0
-80 25 20 0
80 -25 20 0
80 25 -20 0
-76 -77 0
-76 -78 0
-76 -79 0
-76 -80 0
-77 -78 0
-77 -79 0
-77 -80 0
-78 -79 0
-78 -80 0
-79 -80 0
76 77 78 79 80 0
-81 -26 -21 0
-81 26 21 0
81 -26 21 0
81 26 -21 0
-82 -27 -22 0
-82 27 22 0
82 -27 22 0
82 27 -22 0
-83 -28 -23 0
-83 28 23 0
83 -28 23 0
83 28 -23 0
-84 -29 -24 0
-84 29 24 0
84 -29 24 0
84 29 -24 0
-85 -30 -25 0
-85 30 25 0
85 -30 25 0
85 30 -25 0
-81 -82 0
-81 -83 0
-81 -84 0
-81 -85 0
-82 -83 0
-82 -84 0
-82 -85 0
-83 -84 0
-83 -85 0
-84 -85 0
81 82 83 84 85 0
-86 -31 -26 0
-86 31 26 0
86 -31 26 0
86 31 -26 0
-87 -32 -27 0
-87 32 27 0
87 -32 27 0
87 32 -27 0
-88 -33 -28 0
-88 33 28 0
88 -33 28 0
88 33 -28 0
-89 -34 -29 0
-89 34 29 0
89 -34 29 0
89 34 -29 0
-90 -35 -30 0
-90 35 30 0
90 -35 30 0
90 35 -30 0
-86 -87 0
-86 -88 0
-86 -89 0
-86 -90 0
-87 -88 0
-87 -89 0
-87 -90 0
-88 -89 0
-88 -90 0
-89 -90 0
86 87 88 89 90 0
-91 -36 -31 0
-91 36 31 0
91 -36 31 0
91 36 -31 0
-92 -37 -32 0
-92 37 32 0
92 -37 32 0
92 37 -32 0
-93 -38 -33 0
-93 38 33 0
93 -38 33 0
93 38 -33 0
-94 -39 -34 0
-94 39 34 0
94 -39 34 0
94 39 -34 0
-95 -40 -35 0
-95 40 35 0
95 -40 35 0
95 40 -35 0
-91 -92 0
-91 -93 0
-91 -94 0
-91 -95 0
-92 -93 0
-92 -94 0
-92 -95 0
-93 -94 0
-93 -95 0
-94 -95 0
91 92 93 94 95 0
-96 -41 -36 0
-96 41 36 0
96 -41 36 0
96 41 -36 0
-97 -42 -37 0
-97 42 37 0
97 -42 37 0
97 42 -37 0
-98 -43 -38 0
-98 43 38 0
98 -43 38 0
98 43 -38 0
-99 -44 -39 0
-99 44 39 0
99 -44 39 0
99 44 -39 0
-100 -45 -40 0
-100 45 40 0
100 -45 40 0
100 45 -40 0
-96 -97 0
-96 -98 0
-96 -99 0
-96 -100 0
-97 -98 0
-97 -99 0
-97 -100 0
-98 -99 0
-98 -100 0
-99 -100 0
96 97 98 99 100 0
-101 -46 -41 0
-101 46 41 0
101 -46 41 0
101 46 -41 0
-102 -47 -42 0
-102 47 42 0
102 -47 42 0
102 47 -42 0
-103 -48 -43 0
-103 48 43 0
103 -48 43 0
103 48 -43 0
-104 -49 -44 0
-104 49 44 0
104 -49 44 0
104 49 -44 0
-105 -50 -45 0
-105 50 45 0
105 -50 45 0
105 50 -45 0
-101 -102 0
-101 -103 0
-101 -104 0
-101 -105 0
-102 -103 0
-102 -104 0
-102 -105 0
-103 -104 0
-103 -105 0
-104 -105 0
101 102 103 104 105 0
-106 -51 -46 0
-106 51 46 0
106 -51 46 0
106 51 -46 0
-107 -52 -47 0
-107 52 47 0
107 -52 47 0
107 52 -47 0
-108 -53 -48 0
-108 53 48 0
108 -53 48 0
108 53 -48 0
-109 -54 -49 0
-109 54 49 0
109 -54 49 0
109 54 -49 0
-110 -55 -50 0
-110 55 50 0
110 -55 50 0
110 55 -50 0
-106 -107 0
-106 -108 0
-106 -109 0
-106 -110 0
-107 -108 0
-107 -109 0
-107 -110 0
-108 -109 0
-108 -110 0
-109 -110 0
106 107 108 109 110 0
-111 -56 -51 0
-111 56 51 0
111 -56 51 0
111 56 -51 0
-112 -57 -52 0
-112 57 52 0
112 -57 52 0
112 57 -52 0
-113 -58 -53 0
-113 58 53 0
113 -58 53 0
113 58 -53 0
-114 -59 -54 0
-114 59 54 0
114 -59 54 0
114 59 -54 0
-115 -60 -55 0
-115 60 55 0
115 -60 55 0
115 60 -55 0
-111 -112 0
-111 -113 0
-111 -114 0
-111 -115 0
-112 -113 0
-112 -114 0
-112 -115 0
-113 -114 0
-113 -115 0
-114 -115 0
111 112 113 114 115 0
-116 -11 -1 0
-116 11 1 0
116 -11 1 0
116 11 -1 0
-117 -12 -2 0
-117 12 2 0
117 -12 2 0
117 12 -2 0
-118 -13 -3 0
-118 13 3 0
118 -13 3 0
118 13 -3 0
-119 -14 -4 0
-119 14 4 0
119 -14 4 0
119 14 -4 0
-120 -15 -5 0
-120 15 5 0
120 -15 5 0
120 15 -5 0
116 117 118 119 120 0
-116 117 118 119 120 0
116 -117 118 119 120 0
116 117 -118 119 120 0
116 117 118 -119 120 0
116 117 118 119 -120 0
-121 -16 -6 0
-121 16 6 0
121 -16 6 0
121 16 -6 0
-122 -17 -7 0
-122 17 7 0
122 -17 7 0
122 17 -7 0
-123 -18 -8 0
-123 18 8 0
123 -18 8 0
123 18 -8 0
-124 -19 -9 0
-124 19 9 0
124 -19 9 0
124 19 -9 0
-125 -20 -10 0
-125 20 10 0
125 -20 10 0
125 20 -10 0
121 122 123 124 125 0
-121 122 123 124 125 0
121 -122 123 124 125 0
121 122 -123 124 125 0
121 122 123 -124 125 0
121 122 123 124 -125 0
-126 -16 -1 0
-126 16 1 0
126 -16 1 0
126 16 -1 0
-127 -17 -2 0
-127 17 2 0
127 -17 2 0
127 17 -2 0
-128 -18 -3 0
-128 18 3 0
128 -18 3 0
128 18 -3 0
-129 -19 -4 0
-129 19 4 0
129 -19 4 0
129 19 -4 0
-130 -20 -5 0
-130 20 5 0
130 -20 5 0
130 20 -5 0
126 127 128 129 130 0
-126 127 128 129 130 0
126 -127 128 129 130 0
126 127 -128 129 130 0
126 127 128 -129 130 0
126 127 128 129 -130 0
-131 -21 -11 0
-131 21 11 0
131 -21 11 0
131 21 -11 0
-132 -22 -12 0
-132 22 12 0
132 -22 12 0
132 22 -12 0
-133 -23 -13 0
-133 23 13 0
133 -23 13 0
133 23 -13 0
-134 -24 -14 0
-134 24 14 0
134 -24 14 0
134 24 -14 0
-135 -25 -15 0
-135 25 15 0
135 -25 15 0
135 25 -15 0
131 132 133 134 135 0
-131 132 133 134 135 0
131 -132 133 134 135 0
131 132 -133 134 135 0
131 132 133 -134 135 0
131 132 133 134 -135 0
-136 -21 -6 0
-136 21 6 0
136 -21 6 0
136 21 -6 0
-137 -22 -7 0
-137 22 7 0
137 -22 7 0
137 22 -7 0
-138 -23 -8 0
-138 23 8 0
138 -23 8 0
138 23 -8 0
-139 -24 -9 0
-139 24 9 0
139 -24 9 0
139 24 -9 0
-140 -25 -10 0
-140 25 10 0
140 -25 10 0
140 25 -10 0
136 137 138 139 140 0
-136 137 138 139 140 0
136 -137 138 139 140 0
136 137 -138 139 140 0
136 137 138 -139 140 0
136 137 138 139 -140 0
-141 -21 -1 0
-141 21 1 0
141 -21 1 0
141 21 -1 0
-142 -22 -2 0
-142 22 2 0
142 -22 2 0
142 22 -2 0
-143 -23 -3 0
-143 23 3 0
143 -23 3 0
143 23 -3 0
-144 -24 -4 0
-144 24 4 0
144 -24 4 0
144 24 -4 0
-145 -25 -5 0
-145 25 5 0
145 -25 5 0
145 25 -5 0
141 142 143 144 145 0
-141 142 143 144 145 0
141 -142 143 144 145 0
141 142 -143 144 145 0
141 142 143 -144 145 0
141 142 143 144 -145 0
-146 -26 -16 0
-146 26 16 0
146 -26 16 0
146 26 -16 0
-147 -27 -17 0
-147 27 17 0
147 -27 17 0
147 27 -17 0
-148 -28 -18 0
-148 28 18 0
148 -28 18 0
148 28 -18 0
-149 -29 -19 0
-149 29 19 0
149 -29 19 0
149 29 -19 0
-150 -30 -20 0
-150 30 20 0
150 -30 20 0
150 30 -20 0
146 147 148 149 150 0
-146 147 148 149 150 0
146 -147 148 149 150 0
146 147 -148 149 150 0
146 147 148 -149 150 0
146 147 148 149 -150 0
-151 -26 -11 0
-151 26 11 0
151 -26 11 0
151 26 -11 0
-152 -27 -12 0
-152 27 12 0
152 -27 12 0
152 27 -12 0
-153 -28 -13 0
-153 28 13 0
153 -28 13 0
153 28 -13 0
-154 -29 -14 0
-154 29 14 0
154 -29 14 0
154 29 -14 0
-155 -30 -15 0
-155 30 15 0
155 -30 15 0
155 30 -15 0
151 152 153 154 155 0
-151 152 153 154 155 0
151 -152 153 154 155 0
151 152 -153 154 155 0
151 152 153 -154 155 0
151 152 153 154 -155 0
-156 -26 -6 0
-156 26 6 0
156 -26 6 0
156 26 -6 0
-157 -27 -7 0
-157 27 7 0
157 -27 7 0
157 27 -7 0
-158 -28 -8 0
-158 28 8 0
158 -28 8 0
158 28 -8 0
-159 -29 -9 0
-159 29 9 0
159 -29 9 0
159 29 -9 0
-160 -30 -10 0
-160 30 10 0
160 -30 10 0
160 30 -10 0
156 157 158 159 160 0
-156 157 158 159 160 0
156 -157 158 159 160 0
156 157 -158 159 160 0
156 157 158 -159 160 0
156 157 158 159 -160 0
-161 -26 -1 0
-161 26 1 0
161 -26 1 0
161 26 -1 0
-162 -27 -2 0
-162 27 2 0
162 -27 2 0
162 27 -2 0
-163 -28 -3 0
-163 28 3 0
163 -28 3 0
163 28 -3 0
-164 -29 -4 0
-164 29 4 0
164 -29 4 0
164 29 -4 0
-165 -30 -5 0
-165 30 5 0
165 -30 5 0
165 30 -5 0
161 162 163 164 165 0
-161 162 163 164 165 0
161 -162 163 164 165 0
161 162 -163 164 165 0
161 162 163 -164 165 0
161 162 163 164 -165 0
-166 -31 -21 0
-166 31 21 0
166 -31 21 0
166 31 -21 0
-167 -32 -22 0
-167 32 22 0
167 -32 22 0
167 32 -22 0
-168 -33 -23 0
-168 33 23 0
168 -33 23 0
168 33 -23 0
-169 -34 -24 0
-169 34 24 0
169 -34 24 0
169 34 -24 0
-170 -35 -25 0
-170 35 25 0
170 -35 25 0
170 35 -25 0
166 167 168 169 170 0
-166 167 168 169 170 0
166 -167 168 169 170 0
166 167 -168 169 170 0
166 167 168 -169 170 0
166 167 168 169 -170 0
-171 -31 -16 0
-171 31 16 0
171 -31 16 0
171 31 -16 0
-172 -32 -17 0
-172 32 17 0
172 -32 17 0
172 32 -17 0
-173 -33 -18 0
-173 33 18 0
173 -33 18 0
173 33 -18 0
-174 -34 -19 0
-174 34 19 0
174 -34 19 0
174 34 -19 0
-175 -35 -20 0
-175 35 20 0
175 -35 20 0
175 35 -20 0
171 172 173 174 175 0
-171 172 173 174 175 0
171 -172 173 174 175 0
171 172 -173 174 175 0
171 172 173 -174 175 0
171 172 173 174 -175 0
-176 -31 -11 0
-176 31 11 0
176 -31 11 0
176 31 -11 0
-177 -32 -12 0
-177 32 12 0
177 -32 12 0
177 32 -12 0
-178 -33 -13 0
-178 33 13 0
178 -33 13 0
178 33 -13 0
-179 -34 -14 0
-179 34 14 0
179 -34 14 0
179 34 -14 0
-180 -35 -15 0
-180 35 15 0
180 -35 15 0
180 35 -15 0
176 177 178 179 180 0
-176 177 178 179 180 0
176 -177 178 179 180 0
176 177 -178 179 180 0
176 177 178 -179 180 0
176 177 178 179 -180 0
-181 -31 -6 0
-181 31 6 0
181 -31 6 0
181 31 -6 0
-182 -32 -7 0
-182 32 7 0
182 -32 7 0
182 32 -7 0
-183 -33 -8 0
-183 33 8 0
183 -33 8 0
183 33 -8 0
-184 -34 -9 0
-184 34 9 0
184 -34 9 0
184 34 -9 0
-185 -35 -10 0
-185 35 10 0
185 -35 10 0
185 35 -10 0
181 182 183 184 185 0
-181 182 183 184 185 0
181 -182 183 184 185 0
181 182 -183 184 185 0
181 182 183 -184 185 0
181 182 183 184 -185 0
-186 -31 -1 0
-186 31 1 0
186 -31 1 0
186 31 -1 0
-187 -32 -2 0
-187 32 2 0
187 -32 2 0
187 32 -2 0
-188 -33 -3 0
-188 33 3 0
188 -33 3 0
188 33 -3 0
-189 -34 -4 0
-189 34 4 0
189 -34 4 0
189 34 -4 0
-190 -35 -5 0
-190 35 5 0
190 -35 5 0
190 35 -5 0
186 187 188 189 190 0
-186 187 188 189 190 0
186 -187 188 189 190 0
186 187 -188 189 190 0
186 187 188 -189 190 0
186 187 188 189 -190 0
-191 -36 -26 0
-191 36 26 0
191 -36 26 0
191 36 -26 0
-192 -37 -27 0
-192 37 27 0
192 -37 27 0
192 37 -27 0
-193 -38 -28 0
-193 38 28 0
193 -38 28 0
193 38 -28 0
-194 -39 -29 0
-194 39 29 0
194 -39 29 0
194 39 -29 0
-195 -40 -30 0
-195 40 30 0
195 -40 30 0
195 40 -30 0
191 192 193 194 195 0
-191 192 193 194 195 0
191 -192 193 194 195 0
191 192 -193 194 195 0
191 192 193 -194 195 0
191 192 193 194 -195 0
-196 -36 -21 0
-196 36 21 0
196 -36 21 0
196 36 -21 0
-197 -37 -22 0
-197 37 22 0
197 -37 22 0
197 37 -22 0
-198 -38 -23 0
-198 38 23 0
198 -38 23 0
198 38 -23 0
-199 -39 -24 0
-199 39 24 0
199 -39 24 0
199 39 -24 0
-200 -40 -25 0
-200 40 25 0
200 -40 25 0
200 40 -25 0
196 197 198 199 200 0
-196 197 198 199 200 0
196 -197 198 199 200 0
196 197 -198 199 200 0
196 197 198 -199 200 0
196 197 198 199 -200 0
-201 -36 -16 0
-201 36 16 0
201 -36 16 0
201 36 -16 0
-202 -37 -17 0
-202 37 17 0
202 -37 17 0
202 37 -17 0
-203 -38 -18 0
-203 38 18 0
203 -38 18 0
203 38 -18 0
-204 -39 -19 0
-204 39 19 0
204 -39 19 0
204 39 -19 0
-205 -40 -20 0
-205 40 20 0
205 -40 20 0
205 40 -20 0
201 202 203 204 205 0
-201 202 203 204 205 0
201 -202 203 204 205 0
201 202 -203 204 205 0
201 202 203 -204 205 0
201 202 203 204 -205 0
-206 -36 -11 0
-206 36 11 0
206 -36 11 0
206 36 -11 0
-207 -37 -12 0
-207 37 12 0
207 -37 12 0
207 37 -12 0
-208 -38 -13 0
-208 38 13 0
208 -38 13 0
208 38 -13 0
-209 -39 -14 0
-209 39 14 0
209 -39 14 0
209 39 -14 0
-210 -40 -15 0
-210 40 15 0
210 -40 15 0
210 40 -15 0
206 207 208 209 210 0
-206 207 208 209 210 0
206 -207 208 209 210 0
206 207 -208 209 210 0
206 207 208 -209 210 0
206 207 208 209 -210 0
-211 -36 -6 0
-211 36 6 0
211 -36 6 0
211 36 -6 0
-212 -37 -7 0
-212 37 7 0
212 -37 7 0
212 37 -7 0
-213 -38 -8 0
-213 38 8 0
213 -38 8 0
213 38 -8 0
-214 -39 -9 0
-214 39 9 0
214 -39 9 0
214 39 -9 0
-215 -40 -10 0
-215 40 10 0
215 -40 10 0
215 40 -10 0
211 212 213 214 215 0
-211 212 213 214 215 0
211 -212 213 214 215 0
211 212 -213 214 215 0
211 212 213 -214 215 0
211 212 213 214 -215 0
-216 -36 -1 0
-216 36 1 0
216 -36 1 0
216 36 -1 0
-217 -37 -2 0
-217 37 2 0
217 -37 2 0
217 37 -2 0
-218 -38 -3 0
-218 38 3 0
218 -38 3 0
218 38 -3 0
-219 -39 -4 0
-219 39 4 0
219 -39 4 0
219 39 -4 0
-220 -40 -5 0
-220 40 5 0
220 -40 5 0
220 40 -5 0
216 217 218 219 220 0
-216 217 218 219 220 0
216 -217 218 219 220 0
216 217 -218 219 220 0
216 217 218 -219 220 0
216 217 218 219 -220 0
-221 -41 -31 0
-221 41 31 0
221 -41 31 0
221 41 -31 0
-222 -42 -32 0
-222 42 32 0
222 -42 32 0
222 42 -32 0
-223 -43 -33 0
-223 43 33 0
223 -43 33 0
223 43 -33 0
-224 -44 -34 0
-224 44 34 0
224 -44 34 0
224 44 -34 0
-225 -45 -35 0
-225 45 35 0
225 -45 35 0
225 45 -35 0
221 222 223 224 225 0
-221 222 223 224 225 0
221 -222 223 224 225 0
221 222 -223 224 225 0
221 222 223 -224 225 0
221 222 223 224 -225 0
-226 -41 -26 0
-226 41 26 0
226 -41 26 0
226 41 -26 0
-227 -42 -27 0
-227 42 27 0
227 -42 27 0
227 42 -27 0
-228 -43 -28 0
-228 43 28 0
228 -43 28 0
228 43 -28 0
-229 -44 -29 0
-229 44 29 0
229 -44 29 0
229 44 -29 0
-230 -45 -30 0
-230 45 30 0
230 -45 30 0
230 45 -30 0
226 227 228 229 230 0
-226 227 228 229 230 0
226 -227 228 229 230 0
226 227 -228 229 230 0
226 227 228 -229 230 0
226 227 228 229 -230 0
-231 -41 -21 0
-231 41 21 0
231 -41 21 0
231 41 -21 0
-232 -42 -22 0
-232 42 22 0
232 -42 22 0
232 42 -22 0
-233 -43 -23 0
-233 43 23 0
233 -43 23 0
233 43 -23 0
-234 -44 -24 0
-234 44 24 0
234 -44 24 0
234 44 -24 0
-235 -45 -25 0
-235 45 25 0
235 -45 25 0
235 45 -25 0
231 232 233 234 235 0
-231 232 233 234 235 0
231 -232 233 234 235 0
231 232 -233 234 235 0
231 232 233 -234 235 0
231 232 233 234 -235 0
-236 -41 -16 0
-236 41 16 0
236 -41 16 0
236 41 -16 0
-237 -42 -17 0
-237 42 17 0
237 -42 17 0
237 42 -17 0
-238 -43 -18 0
-238 43 18 0
238 -43 18 0
238 43 -18 0
-239 -44 -19 0
-239 44 19 0
239 -44 19 0
239 44 -19 0
-240 -45 -20 0
-240 45 20 0
240 -45 20 0
240 45 -20 0
236 237 238 239 240 0
-236 237 238 239 240 0
236 -237 238 239 240 0
236 237 -238 239 240 0
236 237 238 -239 240 0
236 237 238 239 -240 0
-241 -41 -11 0
-241 41 11 0
241 -41 11 0
241 41 -11 0
-242 -42 -12 0
-242 42 12 0
242 -42 12 0
242 42 -12 0
-243 -43 -13 0
-243 43 13 0
243 -43 13 0
243 43 -13 0
-244 -44 -14 0
-244 44 14 0
244 -44 14 0
244 44 -14 0
-245 -45 -15 0
-245 45 15 0
245 -45 15 0
245 45 -15 0
241 242 243 244 245 0
-241 242 243 244 245 0
241 -242 243 244 245 0
241 242 -243 244 245 0
241 242 243 -244 245 0
241 242 243 244 -245 0
-246 -41 -6 0
-246 41 6 0
246 -41 6 0
246 41 -6 0
-247 -42 -7 0
-247 42 7 0
247 -42 7 0
247 42 -7 0
-248 -43 -8 0
-248 43 8 0
248 -43 8 0
248 43 -8 0
-249 -44 -9 0
-249 44 9 0
249 -44 9 0
249 44 -9 0
-250 -45 -10 0
-250 45 10 0
250 -45 10 0
250 45 -10 0
246 247 248 249 250 0
-246 247 248 249 250 0
246 -247 248 249 250 0
246 247 -248 249 250 0
246 247 248 -249 250 0
246 247 248 249 -250 0
-251 -41 -1 0
-251 41 1 0
251 -41 1 0
251 41 -1 0
-252 -42 -2 0
-252 42 2 0
252 -42 2 0
252 42 -2 0
-253 -43 -3 0
-253 43 3 0
253 -43 3 0
253 43 -3 0
-254 -44 -4 0
-254 44 4 0
254 -44 4 0
254 44 -4 0
-255 -45 -5 0
-255 45 5 0
255 -45 5 0
255 45 -5 0
251 252 253 254 255 0
-251 252 253 254 255 0
251 -252 253 254 255 0
251 252 -253 254 255 0
251 252 253 -254 255 0
251 252 253 254 -255 0
-256 -46 -36 0
-256 46 36 0
256 -46 36 0
256 46 -36 0
-257 -47 -37 0
-257 47 37 0
257 -47 37 0
257 47 -37 0
-258 -48 -38 0
-258 48 38 0
258 -48 38 0
258 48 -38 0
-259 -49 -39 0
-259 49 39 0
259 -49 39 0
259 49 -39 0
-260 -50 -40 0
-260 50 40 0
260 -50 40 0
260 50 -40 0
256 257 258 259 260 0
-256 257 258 259 260 0
256 -257 258 259 260 0
256 257 -258 259 260 0
256 257 258 -259 260 0
256 257 258 259 -260 0
-261 -46 -31 0
-261 46 31 0
261 -46 31 0
261 46 -31 0
-262 -47 -32 0
-262 47 32 0
262 -47 32 0
262 47 -32 0
-263 -48 -33 0
-263 48 33 0
263 -48 33 0
263 48 -33 0
-264 -49 -34 0
-264 49 34 0
264 -49 34 0
264 49 -34 0
-265 -50 -35 0
-265 50 35 0
265 -50 35 0
265 50 -35 0
261 262 263 264 265 0
-261 262 263 264 265 0
261 -262 263 264 265 0
261 262 -263 264 265 0
261 262 263 -264 265 0
261 262 263 264 -265 0
-266 -46 -26 0
-266 46 26 0
266 -46 26 0
266 46 -26 0
-267 -47 -27 0
-267 47 27 0
267 -47 27 0
267 47 -27 0
-268 -48 -28 0
-268 48 28 0
268 -48 28 0
268 48 -28 0
-269 -49 -29 0
-269 49 29 0
269 -49 29 0
269 49 -29 0
-270 -50 -30 0
-270 50 30 0
270 -50 30 0
270 50 -30 0
266 267 268 269 270 0
-266 267 268 269 270 0
266 -267 268 269 270 0
266 267 -268 269 270 0
266 267 268 -269 270 0
266 267 268 269 -270 0
-271 -46 -21 0
-271 46 21 0
271 -46 21 0
271 46 -21 0
-272 -47 -22 0
-272 47 22 0
272 -47 22 0
272 47 -22 0
-273 -48 -23 0
-273 48 23 0
273 -48 23 0
273 48 -23 0
-274 -49 -24 0
-274 49 24 0
274 -49 24 0
274 49 -24 0
-275 -50 -25 0
-275 50 25 0
275 -50 25 0
275 50 -25 0
271 272 273 274 275 0
-271 272 273 274 275 0
271 -272 273 274 275 0
271 272 -273 274 275 0
271 272 273 -274 275 0
271 272 273 274 -275 0
-276 -46 -16 0
-276 46 16 0
276 -46 16 0
276 46 -16 0
-277 -47 -17 0
-277 47 17 0
277 -47 17 0
277 47 -17 0
-278 -48 -18 0
-278 48 18 0
278 -48 18 0
278 48 -18 0
-279 -49 -19 0
-279 49 19 0
279 -49 19 0
279 49 -19 0
-280 -50 -20 0
-280 50 20 0
280 -50 20 0
280 50 -20 0
276 277 278 279 280 0
-276 277 278 279 280 0
276 -277 278 279 280 0
276 277 -278 279 280 0
276 277 278 -279 280 0
276 277 278 279 -280 0
-281 -46 -11 0
-281 46 11 0
281 -46 11 0
281 46 -11 0
-282 -47 -12 0
-282 47 12 0
282 -47 12 0
282 47 -12 0
-283 -48 -13 0
-283 48 13 0
283 -48 13 0
283 48 -13 0
-284 -49 -14 0
-284 49 14 0
284 -49 14 0
284 49 -14 0
-285 -50 -15 0
-285 50 15 0
285 -50 15 0
285 50 -15 0
281 282 283 284 285 0
-281 282 283 284 285 0
281 -282 283 284 285 0
281 282 -283 284 285 0
281 282 283 -284 285 0
281 282 283 284 -285 0
-286 -46 -6 0
-286 46 6 0
286 -46 6 0
286 46 -6 0
-287 -47 -7 0
-287 47 7 0
287 -47 7 0
287 47 -7 0
-288 -48 -8 0
-288 48 8 0
288 -48 8 0
288 48 -8 0
-289 -49 -9 0
-289 49 9 0
289 -49 9 0
289 49 -9 0
-290 -50 -10 0
-290 50 10 0
290 -50 10 0
290 50 -10 0
286 287 288 289 290 0
-286 287 288 289 290 0
286 -287 288 289 290 0
286 287 -288 289 290 0
286 287 288 -289 290 0
286 287 288 289 -290 0
-291 -46 -1 0
-291 46 1 0
291 -46 1 0
291 46 -1 0
-292 -47 -2 0
-292 47 2 0
292 -47 2 0
292 47 -2 0
-293 -48 -3 0
-293 48 3 0
293 -48 3 0
293 48 -3 0
-294 -49 -4 0
-294 49 4 0
294 -49 4 0
294 49 -4 0
-295 -50 -5 0
-295 50 5 0
295 -50 5 0
295 50 -5 0
291 292 293 294 295 0
-291 292 293 294 295 0
291 -292 293 294 295 0
291 292 -293 294 295 0
291 292 293 -294 295 0
291 292 293 294 -295 0
-296 -51 -41 0
-296 51 41 0
296 -51 41 0
296 51 -41 0
-297 -52 -42 0
-297 52 42 0
297 -52 42 0
297 52 -42 0
-298 -53 -43 0
-298 53 43 0
298 -53 43 0
298 53 -43 0
-299 -54 -44 0
-299 54 44 0
299 -54 44 0
299 54 -44 0
-300 -55 -45 0
-300 55 45 0
300 -55 45 0
300 55 -45 0
296 297 298 299 300 0
-296 297 298 299 300 0
296 -297 298 299 300 0
296 297 -298 299 300 0
296 297 298 -299 300 0
296 297 298 299 -300 0
-301 -51 -36 0
-301 51 36 0
301 -51 36 0
301 51 -36 0
-302 -52 -37 0
-302 52 37 0
302 -52 37 0
302 52 -37 0
-303 -53 -38 0
-303 53 38 0
303 -53 38 0
303 53 -38 0
-304 -54 -39 0
-304 54 39 0
304 -54 39 0
304 54 -39 0
-305 -55 -40 0
-305 55 40 0
305 -55 40 0
305 55 -40 0
301 302 303 304 305 0
-301 302 303 304 305 0
301 -302 303 304 305 0
301 302 -303 304 305 0
301 302 303 -304 305 0
301 302 303 304 -305 0
-306 -51 -31 0
-306 51 31 0
306 -51 31 0
306 51 -31 0
-307 -52 -32 0
-307 52 32 0
307 -52 32 0
307 52 -32 0
-308 -53 -33 0
-308 53 33 0
308 -53 33 0
308 53 -33 0
-309 -54 -34 0
-309 54 34 0
309 -54 34 0
309 54 -34 0
-310 -55 -35 0
-310 55 35 0
310 -55 35 0
310 55 -35 0
306 307 308 309 310 0
-306 307 308 309 310 0
306 -307 308 309 310 0
306 307 -308 309 310 0
306 307 308 -309 310 0
306 307 308 309 -310 0
-311 -51 -26 0
-311 51 26 0
311 -51 26 0
311 51 -26 0
-312 -52 -27 0
-312 52 27 0
312 -52 27 0
312 52 -27 0
-313 -53 -28 0
-313 53 28 0
313 -53 28 0
313 53 -28 0
-314 -54 -29 0
-314 54 29 0
314 -54 29 0
314 54 -29 0
-315 -55 -30 0
-315 55 30 0
315 -55 30 0
315 55 -30 0
311 312 313 314 315 0
-311 312 313 314 315 0
311 -312 313 314 315 0
311 312 -313 314 315 0
311 312 313 -314 315 0
311 312 313 314 -315 0
-316 -51 -21 0
-316 51 21 0
316 -51 21 0
316 51 -21 0
-317 -52 -22 0
-317 52 22 0
317 -52 22 0
317 52 -22 0
-318 -53 -23 0
-318 53 23 0
318 -53 23 0
318 53 -23 0
-319 -54 -24 0
-319 54 24 0
319 -54 24 0
319 54 -24 0
-320 -55 -25 0
-320 55 25 0
320 -55 25 0
320 55 -25 0
316 317 318 319 320 0
-316 317 318 319 320 0
316 -317 318 319 320 0
316 317 -318 319 320 0
316 317 318 -319 320 0
316 317 318 319 -320 0
-321 -51 -16 0
-321 51 16 0
321 -51 16 0
321 51 -16 0
-322 -52 -17 0
-322 52 17 0
322 -52 17 0
322 52 -17 0
-323 -53 -18 0
-323 53 18 0
323 -53 18 0
323 53 -18 0
-324 -54 -19 0
-324 54 19 0
324 -54 19 0
324 54 -19 0
-325 -55 -20 0
-325 55 20 0
325 -55 20 0
325 55 -20 0
321 322 323 324 325 0
-321 322 323 324 325 0
321 -322 323 324 325 0
321 322 -323 324 325 0
321 322 323 -324 325 0
321 322 323 324 -325 0
-326 -51 -11 0
-326 51 11 0
326 -51 11 0
326 51 -11 0
-327 -52 -12 0
-327 52 12 0
327 -52 12 0
327 52 -12 0
-328 -53 -13 0
-328 53 13 0
328 -53 13 0
328 53 -13 0
-329 -54 -14 0
-329 54 14 0
329 -54 14 0
329 54 -14 0
-330 -55 -15 0
-330 55 15 0
330 -55 15 0
330 55 -15 0
326 327 328 329 330 0
-326 327 328 329 330 0
326 -327 328 329 330 0
326 327 -328 329 330 0
326 327 328 -329 330 0
326 327 328 329 -330 0
-331 -51 -6 0
-331 51 6 0
331 -51 6 0
331 51 -6 0
-332 -52 -7 0
-332 52 7 0
332 -52 7 0
332 52 -7 0
-333 -53 -8 0
-333 53 8 0
333 -53 8 0
333 53 -8 0
-334 -54 -9 0
-334 54 9 0
334 -54 9 0
334 54 -9 0
-335 -55 -10 0
-335 55 10 0
335 -55 10 0
335 55 -10 0
331 332 333 334 335 0
-331 332 333 334 335 0
331 -332 333 334 335 0
331 332 -333 334 335 0
331 332 333 -334 335 0
331 332 333 334 -335 0
-336 -51 -1 0
-336 51 1 0
336 -51 1 0
336 51 -1 0
-337 -52 -2 0
-337 52 2 0
337 -52 2 0
337 52 -2 0
-338 -53 -3 0
-338 53 3 0
338 -53 3 0
338 53 -3 0
-339 -54 -4 0
-339 54 4 0
339 -54 4 0
339 54 -4 0
-340 -55 -5 0
-340 55 5 0
340 -55 5 0
340 55 -5 0
336 337 338 339 340 0
-336 337 338 339 340 0
336 -337 338 339 340 0
336 337 -338 339 340 0
336 337 338 -339 340 0
336 337 338 339 -340 0
-341 -56 -46 0
-341 56 46 0
341 -56 46 0
341 56 -46 0
-342 -57 -47 0
-342 57 47 0
342 -57 47 0
342 57 -47 0
-343 -58 -48 0
-343 58 48 0
343 -58 48 0
343 58 -48 0
-344 -59 -49 0
-344 59 49 0
344 -59 49 0
344 59 -49 0
-345 -60 -50 0
-345 60 50 0
345 -60 50 0
345 60 -50 0
341 342 343 344 345 0
-341 342 343 344 345 0
341 -342 343 344 345 0
341 342 -343 344 345 0
341 342 343 -344 345 0
341 342 343 344 -345 0
-346 -56 -41 0
-346 56 41 0
346 -56 41 0
346 56 -41 0
-347 -57 -42 0
-347 57 42 0
347 -57 42 0
347 57 -42 0
-348 -58 -43 0
-348 58 43 0
348 -58 43 0
348 58 -43 0
-349 -59 -44 0
-349 59 44 0
349 -59 44 0
349 59 -44 0
-350 -60 -45 0
-350 60 45 0
350 -60 45 0
350 60 -45 0
346 347 348 349 350 0
-346 347 348 349 350 0
346 -347 348 349 350 0
346 347 -348 349 350 0
346 347 348 -349 350 0
346 347 348 349 -350 0
-351 -56 -36 0
-351 56 36 0
351 -56 36 0
351 56 -36 0
-352 -57 -37 0
-352 57 37 0
352 -57 37 0
352 57 -37 0
-353 -58 -38 0
-353 58 38 0
353 -58 38 0
353 58 -38 0
-354 -59 -39 0
-354 59 39 0
354 -59 39 0
354 59 -39 0
-355 -60 -40 0
-355 60 40 0
355 -60 40 0
355 60 -40 0
351 352 353 354 355 0
-351 352 353 354 355 0
351 -352 353 354 355 0
351 352 -353 354 355 0
351 352 353 -354 355 0
351 352 353 354 -355 0
-356 -56 -31 0
-356 56 31 0
356 -56 31 0
356 56 -31 0
-357 -57 -32 0
-357 57 32 0
357 -57 32 0
357 57 -32 0
-358 -58 -33 0
-358 58 33 0
358 -58 33 0
358 58 -33 0
-359 -59 -34 0
-359 59 34 0
359 -59 34 0
359 59 -34 0
-360 -60 -35 0
-360 60 35 0
360 -60 35 0
360 60 -35 0
356 357 358 359 360 0
-356 357 358 359 360 0
356 -357 358 359 360 0
356 357 -358 359 360 0
356 357 358 -359 360 0
356 357 358 359 -360 0
-361 -56 -26 0
-361 56 26 0
361 -56 26 0
361 56 -26 0
-362 -57 -27 0
-362 57 27 0
362 -57 27 0
362 57 -27 0
-363 -58 -28 0
-363 58 28 0
363 -58 28 0
363 58 -28 0
-364 -59 -29 0
-364 59 29 0
364 -59 29 0
364 59 -29 0
-365 -60 -30 0
-365 60 30 0
365 -60 30 0
365 60 -30 0
361 362 363 364 365 0
-361 362 363 364 365 0
361 -362 363 364 365 0
361 362 -363 364 365 0
361 362 363 -364 365 0
361 362 363 364 -365 0
-366 -56 -21 0
-366 56 21 0
366 -56 21 0
366 56 -21 0
-367 -57 -22 0
-367 57 22 0
367 -57 22 0
367 57 -22 0
-368 -58 -23 0
-368 58 23 0
368 -58 23 0
368 58 -23 0
-369 -59 -24 0
-369 59 24 0
369 -59 24 0
369 59 -24 0
-370 -60 -25 0
-370 60 25 0
370 -60 25 0
370 60 -25 0
366 367 368 369 370 0
-366 367 368 369 370 0
366 -367 368 369 370 0
366 367 -368 369 370 0
366 367 368 -369 370 0
366 367 368 369 -370 0
-371 -56 -16 0
-371 56 16 0
371 -56 16 0
371 56 -16 0
-372 -57 -17 0
-372 57 17 0
372 -57 17 0
372 57 -17 0
-373 -58 -18 0
-373 58 18 0
373 -58 18 0
373 58 -18 0
-374 -59 -19 0
-374 59 19 0
374 -59 19 0
374 59 -19 0
-375 -60 -20 0
-375 60 20 0
375 -60 20 0
375 60 -20 0
371 372 373 374 375 0
-371 372 373 374 375 0
371 -372 373 374 375 0
371 372 -373 374 375 0
371 372 373 -374 375 0
371 372 373 374 -375 0
-376 -56 -11 0
-376 56 11 0
376 -56 11 0
376 56 -11 0
-377 -57 -12 0
-377 57 12 0
377 -57 12 0
377 57 -12 0
-378 -58 -13 0
-378 58 13 0
378 -58 13 0
378 58 -13 0
-379 -59 -14 0
-379 59 14 0
379 -59 14 0
379 59 -14 0
-380 -60 -15 0
-380 60 15 0
380 -60 15 0
380 60 -15 0
376 377 378 379 380 0
-376 377 378 379 380 0
376 -377 378 379 380 0
376 377 -378 379 380 0
376 377 378 -379 380 0
376 377 378 379 -380 0
-381 -56 -6 0
-381 56 6 0
381 -56 6 0
381 56 -6 0
-382 -57 -7 0
-382 57 7 0
382 -57 7 0
382 57 -7 0
-383 -58 -8 0
-383 58 8 0
383 -58 8 0
383 58 -8 0
-384 -59 -9 0
-384 59 9 0
384 -59 9 0
384 59 -9 0
-385 -60 -10 0
-385 60 10 0
385 -60 10 0
385 60 -10 0
381 382 383 384 385 0
-381 382 383 384 385 0
381 -382 383 384 385 0
381 382 -383 384 385 0
381 382 383 -384 385 0
381 382 383 384 -385 0
-386 -56 -1 0
-386 56 1 0
386 -56 1 0
386 56 -1 0
-387 -57 -2 0
-387 57 2 0
387 -57 2 0
387 57 -2 0
-388 -58 -3 0
-388 58 3 0
388 -58 3 0
388 58 -3 0
-389 -59 -4 0
-389 59 4 0
389 -59 4 0
389 59 -4 0
-390 -60 -5 0
-390 60 5 0
390 -60 5 0
390 60 -5 0
386 387 388 389 390 0
-386 387 388 389 390 0
386 -387 388 389 390 0
386 387 -388 389 390 0
386 387 388 -389 390 0
386 387 388 389 -390 0
